Route #1: 1 29 21 22 38 14 39 37 23 25 1
Route #2: 1 44 2 11 43 40 6 12 27 10 13 1
Route #3: 1 36 35 24 15 3 33 1
Route #4: 1 34 5 7 31 32 1
Route #5: 1 41 9 26 16 28 4 8 1
Route #6: 1 42 19 18 17 30 20 1
cost 2287.946042238676